207033.14,22.4,24.53
204615.27,22.66,24.82
212831.16,21.79,23.87
205700.65,22.54,24.69
204236.02,22.71,24.87
209537.22,22.13,24.24
202786.59,22.87,25.05
211255.08,21.95,24.04
206420.29,22.47,24.61
206761.92,22.43,24.57
208624.27,22.23,24.35
204375.32,22.69,24.85
205597.94,22.56,24.71
212111.66,21.86,23.95
216190.81,21.45,23.5
216209.21,21.45,23.49
207307.23,22.37,24.5
214332.75,21.64,23.7
209137.22,22.17,24.29
200532.76,23.12,25.33
